Academic license - for non-commercial use only
Gurobi Optimizer version 9.0.3 build v9.0.3rc0 (mac64)
Optimize a model with 175196 rows, 160320 columns and 920780 nonzeros
Model fingerprint: 0x2bb09ef0
Variable types: 0 continuous, 160320 integer (160320 binary)
Coefficient statistics:
  Matrix range     [1e+00, 1e+00]
  Objective range  [1e+01, 1e+05]
  Bounds range     [1e+00, 1e+00]
  RHS range        [1e+00, 1e+03]
Presolve removed 20 rows and 20 columns
Presolve time: 1.98s
Presolved: 175176 rows, 160300 columns, 920740 nonzeros
Variable types: 0 continuous, 160300 integer (160300 binary)
Found heuristic solution: objective 812049.00000

Concurrent LP optimizer: dual simplex and barrier
Showing barrier log only...

Root barrier log...

Ordering time: 0.06s

Barrier statistics:
 Dense cols : 160
 AA' NZ     : 8.027e+05
 Factor NZ  : 3.695e+06 (roughly 170 MBytes of memory)
 Factor Ops : 1.996e+08 (less than 1 second per iteration)
 Threads    : 3

                  Objective                Residual
Iter       Primal          Dual         Primal    Dual     Compl     Time
   0   9.30569945e+07 -1.23881698e+05  1.06e+02 0.00e+00  2.44e+03     5s
   1   1.10905143e+06 -2.95398437e+07  4.08e-01 1.82e+03  7.57e+01     6s
   2   9.61376165e+05 -3.31147124e+06  1.04e-01 2.21e+02  9.64e+00     6s
   3   9.18058121e+05 -7.04787465e+04  4.79e-02 8.81e+01  2.15e+00     6s
   4   8.05756501e+05  5.08481587e+05  7.96e-03 2.15e+01  6.37e-01     6s
   5   7.67989406e+05  6.36959684e+05  3.14e-03 8.55e+00  2.78e-01     6s
   6   7.60623464e+05  6.73267758e+05  2.61e-03 4.87e+00  1.84e-01     7s
   7   7.46536926e+05  6.93807621e+05  1.73e-03 2.90e+00  1.10e-01     7s
   8   7.34827045e+05  7.01444501e+05  1.01e-03 2.01e+00  7.00e-02     7s
   9   7.32301601e+05  7.07627263e+05  8.59e-04 1.31e+00  5.14e-02     7s
  10   7.29825218e+05  7.08805142e+05  7.18e-04 1.14e+00  4.38e-02     8s
  11   7.28181571e+05  7.09624852e+05  6.24e-04 1.02e+00  3.87e-02     8s
  12   7.25919620e+05  7.11013710e+05  5.02e-04 8.34e-01  3.11e-02     8s
  13   7.24601019e+05  7.11881210e+05  4.29e-04 7.07e-01  2.66e-02     8s
  14   7.22617801e+05  7.12747357e+05  3.23e-04 5.86e-01  2.07e-02     8s
  15   7.21623177e+05  7.13999751e+05  2.71e-04 4.22e-01  1.59e-02     8s
  16   7.20818089e+05  7.14435940e+05  2.29e-04 3.58e-01  1.33e-02     9s
  17   7.19969075e+05  7.14795513e+05  1.82e-04 3.04e-01  1.08e-02     9s
  18   7.19543950e+05  7.15261891e+05  1.57e-04 2.33e-01  8.93e-03     9s
  19   7.18984718e+05  7.15436577e+05  1.26e-04 2.08e-01  7.42e-03     9s
  20   7.18652822e+05  7.15538698e+05  1.07e-04 1.92e-01  6.53e-03    10s
  21   7.18498284e+05  7.15828776e+05  9.89e-05 1.49e-01  5.57e-03    10s
  22   7.18328051e+05  7.15985424e+05  8.99e-05 1.24e-01  4.87e-03    10s
  23   7.18099889e+05  7.16070150e+05  7.70e-05 1.11e-01  4.23e-03    10s
  24   7.17788881e+05  7.16223250e+05  5.89e-05 8.79e-02  3.26e-03    10s
  25   7.17736579e+05  7.16274560e+05  5.59e-05 7.95e-02  3.04e-03    11s
  26   7.17584988e+05  7.16316284e+05  4.73e-05 7.26e-02  2.65e-03    11s
  27   7.17493610e+05  7.16362630e+05  4.22e-05 6.56e-02  2.36e-03    11s
  28   7.17405733e+05  7.16442689e+05  3.71e-05 5.18e-02  2.00e-03    11s
  29   7.17364847e+05  7.16485255e+05  3.50e-05 4.48e-02  1.83e-03    11s
  30   7.17278918e+05  7.16513654e+05  3.01e-05 4.02e-02  1.59e-03    12s
  31   7.17230726e+05  7.16556757e+05  2.74e-05 3.35e-02  1.40e-03    12s
  32   7.17129084e+05  7.16578822e+05  2.18e-05 3.00e-02  1.14e-03    12s
  33   7.17076139e+05  7.16611263e+05  1.87e-05 2.46e-02  9.65e-04    12s
  34   7.17047758e+05  7.16624107e+05  1.70e-05 2.25e-02  8.80e-04    13s
  35   7.17011494e+05  7.16642023e+05  1.50e-05 1.95e-02  7.67e-04    13s
  36   7.16982022e+05  7.16665432e+05  1.33e-05 1.54e-02  6.55e-04    13s
  37   7.16951188e+05  7.16682443e+05  1.15e-05 1.25e-02  5.55e-04    13s
  38   7.16934176e+05  7.16687543e+05  1.05e-05 1.16e-02  5.09e-04    13s
  39   7.16903148e+05  7.16694571e+05  8.79e-06 1.03e-02  4.31e-04    13s
  40   7.16879144e+05  7.16700920e+05  7.35e-06 9.24e-03  3.69e-04    14s
  41   7.16869793e+05  7.16705372e+05  6.82e-06 8.49e-03  3.41e-04    14s
  42   7.16858392e+05  7.16713710e+05  6.15e-06 7.04e-03  2.99e-04    14s
  43   7.16852544e+05  7.16717363e+05  5.80e-06 6.41e-03  2.79e-04    14s
  44   7.16833488e+05  7.16725987e+05  4.66e-06 4.94e-03  2.22e-04    14s
  45   7.16818095e+05  7.16728648e+05  3.75e-06 4.46e-03  1.85e-04    15s
  46   7.16808612e+05  7.16733017e+05  3.22e-06 3.70e-03  1.56e-04    15s
  47   7.16802262e+05  7.16736928e+05  2.85e-06 3.00e-03  1.35e-04    15s
  48   7.16794696e+05  7.16738470e+05  2.41e-06 2.71e-03  1.16e-04    15s
  49   7.16790148e+05  7.16741361e+05  2.17e-06 2.20e-03  1.01e-04    15s
  50   7.16784926e+05  7.16742438e+05  1.86e-06 2.02e-03  8.78e-05    16s
  51   7.16782237e+05  7.16743625e+05  1.70e-06 1.81e-03  7.97e-05    16s
  52   7.16776132e+05  7.16744907e+05  1.33e-06 1.59e-03  6.47e-05    16s
  53   7.16769142e+05  7.16746774e+05  9.00e-07 1.26e-03  4.66e-05    16s
  54   7.16763809e+05  7.16748791e+05  5.75e-07 9.12e-04  3.14e-05    16s
  55   7.16762497e+05  7.16749337e+05  4.96e-07 8.22e-04  2.76e-05    16s
  56   7.16758715e+05  7.16751271e+05  2.66e-07 4.81e-04  1.56e-05    17s
  57   7.16757009e+05  7.16752847e+05  1.68e-07 2.05e-04  8.62e-06    17s
  58   7.16755381e+05  7.16753053e+05  7.29e-08 1.71e-04  4.93e-06    17s
  59   7.16754434e+05  7.16754005e+05  1.88e-08 1.10e-05  8.72e-07    17s
  60   7.16754083e+05  7.16754081e+05  9.82e-11 3.55e-08  4.26e-09    17s

Barrier solved model in 60 iterations and 17.24 seconds
Optimal objective 7.16754083e+05


Root crossover log...

   54732 DPushes remaining with DInf 0.0000000e+00                17s
       0 DPushes remaining with DInf 0.0000000e+00                18s

    1191 PPushes remaining with PInf 0.0000000e+00                18s
       0 PPushes remaining with PInf 0.0000000e+00                18s

  Push phase complete: Pinf 0.0000000e+00, Dinf 2.8134828e-10     18s


Root simplex log...

Iteration    Objective       Primal Inf.    Dual Inf.      Time
   10627    7.1675408e+05   0.000000e+00   0.000000e+00     18s

Solved with barrier

Root relaxation: objective 7.167541e+05, 10627 iterations, 13.27 seconds

    Nodes    |    Current Node    |     Objective Bounds      |     Work
 Expl Unexpl |  Obj  Depth IntInf | Incumbent    BestBd   Gap | It/Node Time

     0     0 716754.081    0 13017 812049.000 716754.081  11.7%     -   19s
H    0     0                    773910.00000 716754.081  7.39%     -   37s
     0     0 716760.264    0 13017 773910.000 716760.264  7.38%     -   46s
H    0     0                    720001.00000 716760.264  0.45%     -   48s
     0     0 716763.235    0 13026 720001.000 716763.235  0.45%     -   58s
     0     0 716763.344    0 13019 720001.000 716763.344  0.45%     -   62s
     0     0 716763.364    0 13020 720001.000 716763.364  0.45%     -   65s
     0     0 716765.900    0 13036 720001.000 716765.900  0.45%     -   83s
     0     0 716765.900    0 13036 720001.000 716765.900  0.45%     -   86s
     0     0 716771.172    0 13034 720001.000 716771.172  0.45%     -   97s
     0     0 716771.541    0 13037 720001.000 716771.541  0.45%     -  101s
     0     0 716771.566    0 13039 720001.000 716771.566  0.45%     -  103s
     0     0 716778.262    0 13070 720001.000 716778.262  0.45%     -  115s
H    0     0                    719171.00000 716778.262  0.33%     -  227s
     0     0 716778.592    0 13081 719171.000 716778.592  0.33%     -  227s
     0     0 716778.752    0 13068 719171.000 716778.752  0.33%     -  228s
     0     0 716778.752    0 13066 719171.000 716778.752  0.33%     -  228s
     0     0 716778.752    0 13067 719171.000 716778.752  0.33%     -  231s
     0     0 716792.530    0 13103 719171.000 716792.530  0.33%     -  245s
     0     0 716793.233    0 13115 719171.000 716793.233  0.33%     -  247s
     0     0 716793.365    0 13117 719171.000 716793.365  0.33%     -  248s
     0     0 716798.741    0 13142 719171.000 716798.741  0.33%     -  259s
     0     0 716798.955    0 13144 719171.000 716798.955  0.33%     -  261s
     0     0 716798.962    0 13144 719171.000 716798.962  0.33%     -  262s
     0     0 716805.889    0 13131 719171.000 716805.889  0.33%     -  272s
     0     0 716806.038    0 13125 719171.000 716806.038  0.33%     -  274s
     0     0 716806.038    0 13126 719171.000 716806.038  0.33%     -  274s
     0     0 716811.579    0 13109 719171.000 716811.579  0.33%     -  285s
     0     0 716812.011    0 13103 719171.000 716812.011  0.33%     -  287s
     0     0 716812.049    0 13112 719171.000 716812.049  0.33%     -  288s
     0     0 716820.199    0 13150 719171.000 716820.199  0.33%     -  298s
     0     0 716821.092    0 13147 719171.000 716821.092  0.33%     -  299s
     0     0          -    0      719171.000 716821.092  0.33%     -  300s

Cutting planes:
  Gomory: 3
  Zero half: 168

Explored 1 nodes (20885 simplex iterations) in 300.03 seconds
Thread count was 8 (of 8 available processors)

Solution count 4: 719171 720001 773910 812049 

Time limit reached
Best objective 7.191710000000e+05, best bound 7.168210916375e+05, gap 0.3268%

User-callback calls 39614, time in user-callback 0.35 sec
Solution written to /Users/mdeboute/Desktop/Etudes/Master/M2/S9/GOPP/Projet/multi-period-flp/solution/instMulti_I20_J1000_T8_0_result.txt
